WARNING: for repeatability, setting FPU to use double precision
============================[ Problem Statistics ]=============================
|                                                                             |
|  Number of variables:           100                                         |
|  Number of clauses:             449                                         |
|  Parse time:                   0.00 s                                       |
|  Eliminated clauses:           0.00 Mb                                      |
|  Simplification time:          0.00 s                                       |
|                                                                             |
============================[ Search Statistics ]==============================
| Conflicts |          ORIGINAL         |          LEARNT          | Progress |
|           |    Vars  Clauses Literals |    Limit  Clauses Lit/Cl |          |
===============================================================================
|       100 |      98      440     1328 |      161      100      6 |  0.010 % |
===============================================================================
restarts              : 2
conflicts             : 189            (30802 /sec)
decisions             : 243            (0.00 % random) (39602 /sec)
propagations          : 4614           (751956 /sec)
conflict literals     : 1220           (18.83 % deleted)
Memory used           : 13.00 MB
CPU time              : 0.006136 s

SATISFIABLE
